c "random instance"
p edges 150 3448
e 1 4
e 1 9
e 1 12
e 1 16
e 1 19
e 1 23
e 1 24
e 1 28
e 1 33
e 1 34
e 1 38
e 1 39
e 1 40
e 1 44
e 1 46
e 1 52
e 1 53
e 1 56
e 1 59
e 1 61
e 1 63
e 1 75
e 1 81
e 1 83
e 1 89
e 1 92
e 1 96
e 1 99
e 1 101
e 1 106
e 1 107
e 1 108
e 1 110
e 1 114
e 1 115
e 1 121
e 1 122
e 1 124
e 1 126
e 1 127
e 1 128
e 1 129
e 1 130
e 1 137
e 1 147
e 1 150
e 2 5
e 2 8
e 2 9
e 2 16
e 2 17
e 2 18
e 2 19
e 2 23
e 2 27
e 2 32
e 2 38
e 2 45
e 2 46
e 2 49
e 2 54
e 2 55
e 2 66
e 2 70
e 2 71
e 2 80
e 2 91
e 2 101
e 2 106
e 2 110
e 2 113
e 2 114
e 2 115
e 2 116
e 2 117
e 2 122
e 2 124
e 2 127
e 2 138
e 2 140
e 2 141
e 2 142
e 2 143
e 2 145
e 2 149
e 3 5
e 3 7
e 3 15
e 3 23
e 3 24
e 3 25
e 3 27
e 3 35
e 3 36
e 3 38
e 3 39
e 3 41
e 3 43
e 3 44
e 3 45
e 3 49
e 3 53
e 3 54
e 3 55
e 3 57
e 3 66
e 3 67
e 3 71
e 3 73
e 3 76
e 3 77
e 3 81
e 3 83
e 3 94
e 3 97
e 3 109
e 3 115
e 3 118
e 3 121
e 3 125
e 3 126
e 3 132
e 3 137
e 3 138
e 3 140
e 3 141
e 3 147
e 4 5
e 4 6
e 4 7
e 4 8
e 4 13
e 4 15
e 4 16
e 4 18
e 4 21
e 4 27
e 4 31
e 4 42
e 4 50
e 4 51
e 4 53
e 4 54
e 4 57
e 4 64
e 4 66
e 4 68
e 4 82
e 4 84
e 4 85
e 4 89
e 4 92
e 4 93
e 4 94
e 4 95
e 4 96
e 4 106
e 4 109
e 4 110
e 4 111
e 4 112
e 4 116
e 4 118
e 4 119
e 4 122
e 4 128
e 4 132
e 4 134
e 4 141
e 4 143
e 4 144
e 4 147
e 4 148
e 5 6
e 5 9
e 5 11
e 5 12
e 5 14
e 5 18
e 5 19
e 5 21
e 5 29
e 5 31
e 5 37
e 5 38
e 5 39
e 5 42
e 5 47
e 5 48
e 5 50
e 5 52
e 5 54
e 5 58
e 5 59
e 5 61
e 5 62
e 5 65
e 5 74
e 5 76
e 5 77
e 5 83
e 5 84
e 5 88
e 5 92
e 5 97
e 5 101
e 5 103
e 5 108
e 5 125
e 5 126
e 5 131
e 5 135
e 5 139
e 5 140
e 5 150
e 6 7
e 6 10
e 6 14
e 6 16
e 6 19
e 6 20
e 6 22
e 6 24
e 6 25
e 6 26
e 6 27
e 6 30
e 6 38
e 6 43
e 6 47
e 6 51
e 6 52
e 6 53
e 6 54
e 6 58
e 6 61
e 6 64
e 6 66
e 6 69
e 6 70
e 6 72
e 6 83
e 6 86
e 6 87
e 6 90
e 6 92
e 6 93
e 6 96
e 6 100
e 6 112
e 6 116
e 6 119
e 6 120
e 6 123
e 6 125
e 6 127
e 6 137
e 6 138
e 6 143
e 6 147
e 6 148
e 6 149
e 6 150
e 7 10
e 7 15
e 7 16
e 7 19
e 7 22
e 7 24
e 7 26
e 7 31
e 7 37
e 7 40
e 7 43
e 7 44
e 7 46
e 7 55
e 7 61
e 7 63
e 7 64
e 7 66
e 7 67
e 7 69
e 7 72
e 7 73
e 7 75
e 7 82
e 7 84
e 7 88
e 7 91
e 7 92
e 7 94
e 7 98
e 7 102
e 7 103
e 7 104
e 7 105
e 7 107
e 7 111
e 7 114
e 7 116
e 7 117
e 7 118
e 7 119
e 7 121
e 7 134
e 7 136
e 7 138
e 7 141
e 7 143
e 7 145
e 7 149
e 8 9
e 8 10
e 8 16
e 8 17
e 8 20
e 8 24
e 8 25
e 8 29
e 8 31
e 8 34
e 8 35
e 8 36
e 8 40
e 8 44
e 8 45
e 8 46
e 8 47
e 8 48
e 8 51
e 8 53
e 8 60
e 8 63
e 8 65
e 8 70
e 8 75
e 8 76
e 8 79
e 8 82
e 8 83
e 8 85
e 8 87
e 8 96
e 8 107
e 8 110
e 8 113
e 8 116
e 8 117
e 8 122
e 8 127
e 8 130
e 8 137
e 8 142
e 8 143
e 8 150
e 9 13
e 9 17
e 9 22
e 9 24
e 9 25
e 9 26
e 9 31
e 9 33
e 9 40
e 9 43
e 9 44
e 9 46
e 9 48
e 9 51
e 9 56
e 9 59
e 9 60
e 9 65
e 9 69
e 9 71
e 9 72
e 9 76
e 9 79
e 9 85
e 9 94
e 9 95
e 9 96
e 9 101
e 9 103
e 9 106
e 9 119
e 9 130
e 9 132
e 9 134
e 9 135
e 9 137
e 9 140
e 9 144
e 9 146
e 9 149
e 9 150
e 10 13
e 10 16
e 10 21
e 10 23
e 10 27
e 10 30
e 10 33
e 10 35
e 10 39
e 10 43
e 10 48
e 10 50
e 10 53
e 10 54
e 10 55
e 10 60
e 10 67
e 10 68
e 10 71
e 10 78
e 10 80
e 10 81
e 10 82
e 10 85
e 10 93
e 10 95
e 10 100
e 10 103
e 10 104
e 10 105
e 10 108
e 10 113
e 10 116
e 10 120
e 10 121
e 10 128
e 10 135
e 10 136
e 10 137
e 10 138
e 10 139
e 10 146
e 11 13
e 11 15
e 11 16
e 11 17
e 11 19
e 11 24
e 11 28
e 11 33
e 11 34
e 11 37
e 11 38
e 11 40
e 11 41
e 11 43
e 11 44
e 11 45
e 11 52
e 11 55
e 11 60
e 11 61
e 11 64
e 11 71
e 11 73
e 11 74
e 11 75
e 11 79
e 11 81
e 11 84
e 11 87
e 11 89
e 11 98
e 11 100
e 11 105
e 11 106
e 11 113
e 11 114
e 11 117
e 11 125
e 11 131
e 11 132
e 11 135
e 11 140
e 11 141
e 11 145
e 11 146
e 11 147
e 11 150
e 12 20
e 12 21
e 12 22
e 12 25
e 12 30
e 12 33
e 12 39
e 12 42
e 12 43
e 12 46
e 12 47
e 12 49
e 12 50
e 12 53
e 12 58
e 12 59
e 12 60
e 12 62
e 12 64
e 12 65
e 12 69
e 12 73
e 12 76
e 12 81
e 12 84
e 12 87
e 12 89
e 12 90
e 12 92
e 12 93
e 12 102
e 12 111
e 12 113
e 12 118
e 12 121
e 12 122
e 12 126
e 12 127
e 12 130
e 12 131
e 12 132
e 12 136
e 12 137
e 12 141
e 12 150
e 13 25
e 13 34
e 13 36
e 13 44
e 13 48
e 13 60
e 13 66
e 13 68
e 13 73
e 13 75
e 13 78
e 13 79
e 13 80
e 13 85
e 13 90
e 13 96
e 13 101
e 13 104
e 13 109
e 13 115
e 13 116
e 13 120
e 13 121
e 13 127
e 13 129
e 13 137
e 13 147
e 14 15
e 14 21
e 14 30
e 14 33
e 14 39
e 14 41
e 14 47
e 14 49
e 14 53
e 14 54
e 14 59
e 14 69
e 14 70
e 14 72
e 14 76
e 14 79
e 14 80
e 14 82
e 14 90
e 14 91
e 14 95
e 14 96
e 14 98
e 14 101
e 14 102
e 14 103
e 14 116
e 14 117
e 14 118
e 14 119
e 14 125
e 14 128
e 14 129
e 14 133
e 14 134
e 14 139
e 14 141
e 14 142
e 14 146
e 14 147
e 14 149
e 15 17
e 15 22
e 15 23
e 15 24
e 15 27
e 15 30
e 15 33
e 15 35
e 15 36
e 15 39
e 15 41
e 15 46
e 15 51
e 15 52
e 15 57
e 15 60
e 15 62
e 15 63
e 15 81
e 15 84
e 15 86
e 15 87
e 15 92
e 15 94
e 15 99
e 15 101
e 15 103
e 15 104
e 15 107
e 15 110
e 15 112
e 15 113
e 15 121
e 15 124
e 15 131
e 15 132
e 15 134
e 15 136
e 15 137
e 15 142
e 15 143
e 16 18
e 16 20
e 16 24
e 16 30
e 16 35
e 16 40
e 16 41
e 16 45
e 16 47
e 16 48
e 16 51
e 16 56
e 16 60
e 16 67
e 16 69
e 16 70
e 16 73
e 16 75
e 16 78
e 16 81
e 16 82
e 16 84
e 16 89
e 16 93
e 16 95
e 16 103
e 16 111
e 16 116
e 16 119
e 16 123
e 16 131
e 16 133
e 16 135
e 16 139
e 16 141
e 16 147
e 16 149
e 16 150
e 17 25
e 17 28
e 17 29
e 17 32
e 17 34
e 17 35
e 17 39
e 17 40
e 17 41
e 17 53
e 17 54
e 17 55
e 17 61
e 17 64
e 17 65
e 17 69
e 17 71
e 17 79
e 17 83
e 17 88
e 17 95
e 17 96
e 17 100
e 17 111
e 17 114
e 17 116
e 17 119
e 17 126
e 17 133
e 17 138
e 17 139
e 17 142
e 18 22
e 18 25
e 18 28
e 18 29
e 18 30
e 18 31
e 18 35
e 18 37
e 18 38
e 18 42
e 18 43
e 18 46
e 18 47
e 18 49
e 18 53
e 18 55
e 18 57
e 18 58
e 18 60
e 18 61
e 18 62
e 18 63
e 18 64
e 18 65
e 18 66
e 18 67
e 18 69
e 18 71
e 18 74
e 18 77
e 18 78
e 18 79
e 18 82
e 18 87
e 18 95
e 18 97
e 18 99
e 18 100
e 18 104
e 18 108
e 18 109
e 18 116
e 18 117
e 18 118
e 18 127
e 18 131
e 18 135
e 18 140
e 18 141
e 18 145
e 18 149
e 19 20
e 19 26
e 19 29
e 19 30
e 19 39
e 19 42
e 19 48
e 19 51
e 19 54
e 19 57
e 19 62
e 19 63
e 19 67
e 19 71
e 19 72
e 19 73
e 19 76
e 19 77
e 19 79
e 19 80
e 19 86
e 19 90
e 19 91
e 19 92
e 19 97
e 19 98
e 19 107
e 19 116
e 19 119
e 19 124
e 19 126
e 19 128
e 19 130
e 19 133
e 19 138
e 19 141
e 20 21
e 20 23
e 20 25
e 20 28
e 20 31
e 20 34
e 20 37
e 20 39
e 20 43
e 20 57
e 20 59
e 20 60
e 20 62
e 20 70
e 20 72
e 20 81
e 20 82
e 20 84
e 20 86
e 20 88
e 20 89
e 20 93
e 20 99
e 20 110
e 20 112
e 20 122
e 20 139
e 20 142
e 20 147
e 21 23
e 21 24
e 21 27
e 21 29
e 21 30
e 21 31
e 21 34
e 21 37
e 21 44
e 21 47
e 21 49
e 21 51
e 21 57
e 21 62
e 21 63
e 21 66
e 21 72
e 21 76
e 21 78
e 21 82
e 21 87
e 21 88
e 21 92
e 21 93
e 21 94
e 21 96
e 21 101
e 21 103
e 21 109
e 21 113
e 21 115
e 21 120
e 21 122
e 21 126
e 21 129
e 21 132
e 21 135
e 21 136
e 21 137
e 21 139
e 21 143
e 21 145
e 21 148
e 21 150
e 22 28
e 22 29
e 22 31
e 22 32
e 22 33
e 22 34
e 22 38
e 22 40
e 22 41
e 22 56
e 22 61
e 22 70
e 22 71
e 22 72
e 22 76
e 22 81
e 22 84
e 22 87
e 22 106
e 22 113
e 22 123
e 22 126
e 22 134
e 22 142
e 22 145
e 22 149
e 23 30
e 23 31
e 23 33
e 23 34
e 23 35
e 23 37
e 23 38
e 23 46
e 23 47
e 23 49
e 23 53
e 23 54
e 23 58
e 23 61
e 23 64
e 23 66
e 23 67
e 23 69
e 23 71
e 23 76
e 23 80
e 23 82
e 23 87
e 23 88
e 23 89
e 23 90
e 23 92
e 23 96
e 23 97
e 23 98
e 23 100
e 23 101
e 23 104
e 23 106
e 23 108
e 23 119
e 23 125
e 23 129
e 23 131
e 23 133
e 23 140
e 23 145
e 23 146
e 23 147
e 23 148
e 24 25
e 24 26
e 24 27
e 24 29
e 24 30
e 24 41
e 24 45
e 24 46
e 24 50
e 24 53
e 24 57
e 24 68
e 24 72
e 24 73
e 24 77
e 24 82
e 24 84
e 24 85
e 24 89
e 24 90
e 24 94
e 24 96
e 24 98
e 24 99
e 24 103
e 24 104
e 24 107
e 24 111
e 24 113
e 24 116
e 24 125
e 24 132
e 24 136
e 24 141
e 24 142
e 24 143
e 24 150
e 25 26
e 25 27
e 25 30
e 25 33
e 25 34
e 25 35
e 25 40
e 25 42
e 25 43
e 25 44
e 25 45
e 25 47
e 25 48
e 25 49
e 25 51
e 25 52
e 25 54
e 25 57
e 25 64
e 25 67
e 25 73
e 25 74
e 25 75
e 25 79
e 25 80
e 25 82
e 25 83
e 25 86
e 25 88
e 25 89
e 25 90
e 25 99
e 25 103
e 25 107
e 25 110
e 25 114
e 25 117
e 25 118
e 25 119
e 25 127
e 25 128
e 25 134
e 25 139
e 25 145
e 25 146
e 25 149
e 26 27
e 26 29
e 26 31
e 26 34
e 26 35
e 26 37
e 26 41
e 26 42
e 26 45
e 26 50
e 26 65
e 26 71
e 26 82
e 26 89
e 26 98
e 26 100
e 26 103
e 26 104
e 26 106
e 26 111
e 26 116
e 26 120
e 26 122
e 26 123
e 26 125
e 26 127
e 26 130
e 26 131
e 26 134
e 26 136
e 26 140
e 26 148
e 26 150
e 27 29
e 27 31
e 27 34
e 27 37
e 27 48
e 27 50
e 27 52
e 27 54
e 27 56
e 27 57
e 27 63
e 27 64
e 27 65
e 27 72
e 27 81
e 27 84
e 27 88
e 27 92
e 27 95
e 27 96
e 27 99
e 27 108
e 27 111
e 27 113
e 27 126
e 27 127
e 27 131
e 27 136
e 27 140
e 27 141
e 27 144
e 28 33
e 28 36
e 28 38
e 28 39
e 28 40
e 28 41
e 28 45
e 28 47
e 28 49
e 28 51
e 28 54
e 28 55
e 28 57
e 28 58
e 28 60
e 28 62
e 28 64
e 28 71
e 28 75
e 28 80
e 28 82
e 28 83
e 28 84
e 28 85
e 28 87
e 28 89
e 28 91
e 28 92
e 28 99
e 28 106
e 28 111
e 28 112
e 28 113
e 28 114
e 28 115
e 28 116
e 28 120
e 28 123
e 28 125
e 28 126
e 28 129
e 28 131
e 28 135
e 28 136
e 28 139
e 28 143
e 28 146
e 29 32
e 29 34
e 29 35
e 29 37
e 29 39
e 29 43
e 29 45
e 29 55
e 29 61
e 29 62
e 29 76
e 29 79
e 29 84
e 29 86
e 29 90
e 29 92
e 29 93
e 29 101
e 29 105
e 29 106
e 29 115
e 29 121
e 29 125
e 29 127
e 29 138
e 29 146
e 29 150
e 30 33
e 30 37
e 30 41
e 30 44
e 30 47
e 30 49
e 30 52
e 30 53
e 30 56
e 30 67
e 30 68
e 30 79
e 30 83
e 30 86
e 30 89
e 30 91
e 30 95
e 30 98
e 30 102
e 30 105
e 30 107
e 30 109
e 30 112
e 30 113
e 30 129
e 30 130
e 30 132
e 30 134
e 30 143
e 30 149
e 31 35
e 31 37
e 31 38
e 31 41
e 31 44
e 31 46
e 31 47
e 31 49
e 31 51
e 31 55
e 31 57
e 31 58
e 31 62
e 31 65
e 31 66
e 31 67
e 31 74
e 31 80
e 31 84
e 31 86
e 31 87
e 31 90
e 31 93
e 31 95
e 31 96
e 31 115
e 31 120
e 31 121
e 31 122
e 31 123
e 31 132
e 31 134
e 31 138
e 31 139
e 31 140
e 31 141
e 31 145
e 31 148
e 32 35
e 32 38
e 32 39
e 32 42
e 32 43
e 32 45
e 32 46
e 32 47
e 32 49
e 32 53
e 32 55
e 32 56
e 32 71
e 32 84
e 32 86
e 32 89
e 32 91
e 32 99
e 32 101
e 32 106
e 32 107
e 32 108
e 32 111
e 32 112
e 32 119
e 32 123
e 32 129
e 32 139
e 32 140
e 32 146
e 33 36
e 33 40
e 33 43
e 33 51
e 33 59
e 33 67
e 33 68
e 33 80
e 33 82
e 33 85
e 33 88
e 33 93
e 33 102
e 33 103
e 33 104
e 33 108
e 33 109
e 33 112
e 33 120
e 33 127
e 33 134
e 33 135
e 33 136
e 33 149
e 34 37
e 34 38
e 34 40
e 34 44
e 34 46
e 34 47
e 34 49
e 34 51
e 34 52
e 34 53
e 34 54
e 34 56
e 34 57
e 34 58
e 34 59
e 34 60
e 34 61
e 34 63
e 34 64
e 34 65
e 34 70
e 34 72
e 34 73
e 34 74
e 34 77
e 34 78
e 34 100
e 34 106
e 34 108
e 34 109
e 34 112
e 34 113
e 34 114
e 34 116
e 34 117
e 34 118
e 34 120
e 34 122
e 34 124
e 34 125
e 34 127
e 34 128
e 34 137
e 34 141
e 34 142
e 34 144
e 34 145
e 34 146
e 34 148
e 35 38
e 35 39
e 35 41
e 35 58
e 35 60
e 35 62
e 35 65
e 35 69
e 35 70
e 35 72
e 35 75
e 35 78
e 35 81
e 35 84
e 35 85
e 35 86
e 35 88
e 35 89
e 35 98
e 35 100
e 35 102
e 35 105
e 35 106
e 35 107
e 35 110
e 35 111
e 35 112
e 35 118
e 35 121
e 35 122
e 35 125
e 35 126
e 35 130
e 35 132
e 35 133
e 35 135
e 35 136
e 35 138
e 35 139
e 35 143
e 35 145
e 35 149
e 36 44
e 36 51
e 36 52
e 36 53
e 36 57
e 36 59
e 36 66
e 36 69
e 36 70
e 36 71
e 36 73
e 36 79
e 36 80
e 36 81
e 36 88
e 36 89
e 36 90
e 36 92
e 36 95
e 36 97
e 36 105
e 36 108
e 36 113
e 36 115
e 36 116
e 36 118
e 36 121
e 36 127
e 36 128
e 36 130
e 36 131
e 36 132
e 36 147
e 36 149
e 37 40
e 37 43
e 37 47
e 37 48
e 37 52
e 37 56
e 37 57
e 37 66
e 37 67
e 37 68
e 37 79
e 37 80
e 37 84
e 37 88
e 37 93
e 37 95
e 37 100
e 37 102
e 37 103
e 37 107
e 37 117
e 37 118
e 37 120
e 37 121
e 37 123
e 37 125
e 37 127
e 37 137
e 37 138
e 37 143
e 37 148
e 38 40
e 38 42
e 38 45
e 38 49
e 38 53
e 38 54
e 38 56
e 38 59
e 38 60
e 38 63
e 38 71
e 38 73
e 38 75
e 38 76
e 38 77
e 38 80
e 38 83
e 38 84
e 38 85
e 38 86
e 38 88
e 38 91
e 38 93
e 38 99
e 38 100
e 38 102
e 38 108
e 38 109
e 38 115
e 38 120
e 38 121
e 38 124
e 38 131
e 38 132
e 38 142
e 38 143
e 38 145
e 38 146
e 39 40
e 39 45
e 39 50
e 39 53
e 39 57
e 39 62
e 39 77
e 39 79
e 39 82
e 39 84
e 39 87
e 39 90
e 39 91
e 39 92
e 39 96
e 39 100
e 39 103
e 39 112
e 39 113
e 39 114
e 39 118
e 39 122
e 39 125
e 39 128
e 39 132
e 39 136
e 39 137
e 39 144
e 39 150
e 40 42
e 40 43
e 40 55
e 40 57
e 40 58
e 40 59
e 40 60
e 40 62
e 40 68
e 40 72
e 40 74
e 40 75
e 40 78
e 40 79
e 40 83
e 40 87
e 40 89
e 40 90
e 40 91
e 40 97
e 40 99
e 40 103
e 40 104
e 40 107
e 40 109
e 40 113
e 40 114
e 40 116
e 40 117
e 40 118
e 40 119
e 40 124
e 40 126
e 40 129
e 40 133
e 40 135
e 40 137
e 40 139
e 40 148
e 40 150
e 41 44
e 41 47
e 41 58
e 41 60
e 41 61
e 41 65
e 41 67
e 41 70
e 41 71
e 41 75
e 41 77
e 41 83
e 41 85
e 41 90
e 41 99
e 41 107
e 41 110
e 41 111
e 41 113
e 41 114
e 41 115
e 41 119
e 41 120
e 41 121
e 41 134
e 41 137
e 41 138
e 41 147
e 41 148
e 41 149
e 42 44
e 42 45
e 42 48
e 42 52
e 42 54
e 42 62
e 42 64
e 42 65
e 42 70
e 42 75
e 42 77
e 42 78
e 42 81
e 42 82
e 42 85
e 42 88
e 42 90
e 42 94
e 42 95
e 42 96
e 42 98
e 42 99
e 42 102
e 42 109
e 42 114
e 42 116
e 42 120
e 42 121
e 42 124
e 42 127
e 42 129
e 42 132
e 42 133
e 42 138
e 42 139
e 42 141
e 42 142
e 42 143
e 42 145
e 42 148
e 42 150
e 43 45
e 43 52
e 43 58
e 43 60
e 43 64
e 43 71
e 43 74
e 43 79
e 43 81
e 43 82
e 43 87
e 43 90
e 43 92
e 43 94
e 43 103
e 43 112
e 43 113
e 43 117
e 43 118
e 43 123
e 43 124
e 43 127
e 43 128
e 43 129
e 43 134
e 43 135
e 43 138
e 43 143
e 44 46
e 44 49
e 44 51
e 44 54
e 44 56
e 44 60
e 44 61
e 44 62
e 44 65
e 44 70
e 44 73
e 44 80
e 44 81
e 44 82
e 44 83
e 44 85
e 44 86
e 44 90
e 44 92
e 44 95
e 44 96
e 44 101
e 44 103
e 44 108
e 44 110
e 44 113
e 44 115
e 44 116
e 44 117
e 44 121
e 44 127
e 44 135
e 44 139
e 44 141
e 44 143
e 44 145
e 44 149
e 45 56
e 45 58
e 45 66
e 45 68
e 45 70
e 45 73
e 45 82
e 45 88
e 45 89
e 45 93
e 45 94
e 45 95
e 45 96
e 45 97
e 45 98
e 45 99
e 45 103
e 45 106
e 45 107
e 45 110
e 45 112
e 45 113
e 45 117
e 45 119
e 45 122
e 45 125
e 45 130
e 45 131
e 45 134
e 45 135
e 45 136
e 45 143
e 45 146
e 45 150
e 46 53
e 46 57
e 46 58
e 46 62
e 46 63
e 46 65
e 46 71
e 46 72
e 46 73
e 46 76
e 46 81
e 46 83
e 46 91
e 46 92
e 46 93
e 46 98
e 46 99
e 46 101
e 46 111
e 46 117
e 46 118
e 46 121
e 46 123
e 46 124
e 46 125
e 46 129
e 46 130
e 46 138
e 46 139
e 46 140
e 46 141
e 46 142
e 46 143
e 46 144
e 46 147
e 47 48
e 47 51
e 47 56
e 47 57
e 47 70
e 47 72
e 47 79
e 47 80
e 47 82
e 47 91
e 47 95
e 47 106
e 47 107
e 47 108
e 47 112
e 47 116
e 47 123
e 47 125
e 47 128
e 47 129
e 47 134
e 47 135
e 47 136
e 47 137
e 47 140
e 47 143
e 47 146
e 47 148
e 48 50
e 48 52
e 48 53
e 48 56
e 48 62
e 48 64
e 48 70
e 48 76
e 48 80
e 48 83
e 48 84
e 48 85
e 48 88
e 48 89
e 48 91
e 48 94
e 48 96
e 48 97
e 48 99
e 48 100
e 48 101
e 48 102
e 48 106
e 48 114
e 48 116
e 48 117
e 48 118
e 48 120
e 48 122
e 48 124
e 48 125
e 48 127
e 48 128
e 48 129
e 48 131
e 48 132
e 48 134
e 48 136
e 48 142
e 48 143
e 48 144
e 48 148
e 48 149
e 49 52
e 49 57
e 49 62
e 49 66
e 49 70
e 49 74
e 49 76
e 49 78
e 49 79
e 49 81
e 49 83
e 49 86
e 49 88
e 49 89
e 49 91
e 49 93
e 49 94
e 49 110
e 49 111
e 49 115
e 49 116
e 49 119
e 49 120
e 49 122
e 49 123
e 49 134
e 49 137
e 49 140
e 49 147
e 49 148
e 49 149
e 50 53
e 50 54
e 50 55
e 50 57
e 50 58
e 50 62
e 50 70
e 50 73
e 50 74
e 50 79
e 50 81
e 50 83
e 50 85
e 50 87
e 50 90
e 50 92
e 50 94
e 50 96
e 50 99
e 50 102
e 50 106
e 50 109
e 50 114
e 50 116
e 50 123
e 50 125
e 50 135
e 50 136
e 50 143
e 50 146
e 50 150
e 51 55
e 51 58
e 51 62
e 51 64
e 51 65
e 51 66
e 51 68
e 51 69
e 51 73
e 51 79
e 51 81
e 51 87
e 51 89
e 51 91
e 51 96
e 51 98
e 51 100
e 51 101
e 51 105
e 51 115
e 51 118
e 51 123
e 51 126
e 51 127
e 51 130
e 51 137
e 51 139
e 51 143
e 51 145
e 51 146
e 51 147
e 51 148
e 51 149
e 51 150
e 52 57
e 52 76
e 52 80
e 52 81
e 52 82
e 52 85
e 52 89
e 52 93
e 52 94
e 52 98
e 52 99
e 52 101
e 52 102
e 52 108
e 52 115
e 52 117
e 52 119
e 52 121
e 52 127
e 52 130
e 52 132
e 52 140
e 52 141
e 52 143
e 52 146
e 52 150
e 53 54
e 53 56
e 53 59
e 53 62
e 53 63
e 53 66
e 53 67
e 53 79
e 53 81
e 53 82
e 53 84
e 53 91
e 53 95
e 53 97
e 53 98
e 53 103
e 53 104
e 53 108
e 53 119
e 53 123
e 53 125
e 53 126
e 53 127
e 53 129
e 53 138
e 53 142
e 53 144
e 53 145
e 53 149
e 54 64
e 54 65
e 54 74
e 54 76
e 54 78
e 54 87
e 54 91
e 54 92
e 54 94
e 54 98
e 54 108
e 54 110
e 54 111
e 54 115
e 54 116
e 54 117
e 54 119
e 54 122
e 54 124
e 54 127
e 54 132
e 54 135
e 54 139
e 54 144
e 54 150
e 55 57
e 55 63
e 55 67
e 55 72
e 55 73
e 55 75
e 55 77
e 55 84
e 55 89
e 55 90
e 55 93
e 55 95
e 55 96
e 55 99
e 55 100
e 55 101
e 55 105
e 55 111
e 55 116
e 55 117
e 55 124
e 55 126
e 55 129
e 55 130
e 55 131
e 55 132
e 55 136
e 55 139
e 55 142
e 55 143
e 55 147
e 56 57
e 56 58
e 56 60
e 56 61
e 56 66
e 56 67
e 56 68
e 56 69
e 56 75
e 56 77
e 56 80
e 56 81
e 56 83
e 56 89
e 56 90
e 56 92
e 56 99
e 56 105
e 56 108
e 56 110
e 56 112
e 56 120
e 56 121
e 56 122
e 56 123
e 56 124
e 56 125
e 56 128
e 56 129
e 56 130
e 56 133
e 56 134
e 56 136
e 56 139
e 56 140
e 56 141
e 56 142
e 56 144
e 56 145
e 56 148
e 56 149
e 57 61
e 57 63
e 57 64
e 57 69
e 57 77
e 57 78
e 57 82
e 57 84
e 57 85
e 57 99
e 57 101
e 57 104
e 57 107
e 57 108
e 57 118
e 57 119
e 57 123
e 57 124
e 57 129
e 57 130
e 57 132
e 57 133
e 57 138
e 57 145
e 57 146
e 57 147
e 57 150
e 58 61
e 58 63
e 58 65
e 58 74
e 58 76
e 58 78
e 58 82
e 58 87
e 58 91
e 58 93
e 58 96
e 58 97
e 58 109
e 58 110
e 58 112
e 58 115
e 58 118
e 58 120
e 58 122
e 58 124
e 58 126
e 58 129
e 58 132
e 58 134
e 58 138
e 58 140
e 58 141
e 58 145
e 58 147
e 58 149
e 59 60
e 59 63
e 59 64
e 59 66
e 59 67
e 59 69
e 59 74
e 59 77
e 59 81
e 59 82
e 59 85
e 59 91
e 59 93
e 59 105
e 59 106
e 59 107
e 59 109
e 59 112
e 59 113
e 59 122
e 59 123
e 59 125
e 59 127
e 59 129
e 59 130
e 59 135
e 59 139
e 59 140
e 59 143
e 59 146
e 59 147
e 59 148
e 59 150
e 60 61
e 60 64
e 60 69
e 60 70
e 60 86
e 60 88
e 60 89
e 60 90
e 60 92
e 60 94
e 60 97
e 60 103
e 60 106
e 60 112
e 60 115
e 60 119
e 60 125
e 60 126
e 60 128
e 60 132
e 60 135
e 60 137
e 60 142
e 60 145
e 60 146
e 60 148
e 61 66
e 61 69
e 61 72
e 61 74
e 61 80
e 61 83
e 61 85
e 61 91
e 61 93
e 61 95
e 61 98
e 61 102
e 61 104
e 61 117
e 61 120
e 61 122
e 61 129
e 61 131
e 61 136
e 61 137
e 61 139
e 61 140
e 61 141
e 61 142
e 61 143
e 61 145
e 62 68
e 62 74
e 62 76
e 62 79
e 62 80
e 62 88
e 62 96
e 62 98
e 62 101
e 62 103
e 62 105
e 62 108
e 62 110
e 62 112
e 62 116
e 62 121
e 62 123
e 62 130
e 62 134
e 62 137
e 62 141
e 62 147
e 63 64
e 63 66
e 63 67
e 63 69
e 63 72
e 63 73
e 63 80
e 63 87
e 63 97
e 63 98
e 63 101
e 63 106
e 63 107
e 63 108
e 63 109
e 63 113
e 63 115
e 63 117
e 63 120
e 63 121
e 63 130
e 63 131
e 63 135
e 63 139
e 64 66
e 64 71
e 64 74
e 64 76
e 64 80
e 64 81
e 64 82
e 64 87
e 64 89
e 64 94
e 64 95
e 64 96
e 64 97
e 64 101
e 64 103
e 64 106
e 64 110
e 64 111
e 64 112
e 64 114
e 64 116
e 64 120
e 64 123
e 64 127
e 64 129
e 64 132
e 64 138
e 64 139
e 64 140
e 64 143
e 64 149
e 65 66
e 65 67
e 65 70
e 65 75
e 65 85
e 65 89
e 65 93
e 65 98
e 65 99
e 65 102
e 65 106
e 65 107
e 65 108
e 65 109
e 65 114
e 65 119
e 65 121
e 65 122
e 65 126
e 65 128
e 65 129
e 65 130
e 65 131
e 65 132
e 65 135
e 65 136
e 65 139
e 65 141
e 65 143
e 65 146
e 66 67
e 66 69
e 66 74
e 66 80
e 66 83
e 66 87
e 66 88
e 66 90
e 66 91
e 66 98
e 66 99
e 66 105
e 66 108
e 66 112
e 66 113
e 66 115
e 66 117
e 66 118
e 66 119
e 66 124
e 66 125
e 66 128
e 66 130
e 66 131
e 66 134
e 66 137
e 66 146
e 67 71
e 67 74
e 67 77
e 67 79
e 67 81
e 67 83
e 67 99
e 67 100
e 67 101
e 67 104
e 67 108
e 67 109
e 67 110
e 67 112
e 67 114
e 67 121
e 67 122
e 67 126
e 67 127
e 67 128
e 67 132
e 67 138
e 67 139
e 67 150
e 68 71
e 68 72
e 68 73
e 68 78
e 68 81
e 68 82
e 68 84
e 68 88
e 68 89
e 68 91
e 68 92
e 68 96
e 68 102
e 68 113
e 68 120
e 68 121
e 68 128
e 68 132
e 68 141
e 68 143
e 68 144
e 68 149
e 69 73
e 69 75
e 69 77
e 69 78
e 69 79
e 69 80
e 69 81
e 69 87
e 69 94
e 69 97
e 69 103
e 69 107
e 69 108
e 69 111
e 69 113
e 69 115
e 69 116
e 69 117
e 69 118
e 69 119
e 69 122
e 69 127
e 69 133
e 69 135
e 69 142
e 69 144
e 70 74
e 70 80
e 70 83
e 70 87
e 70 89
e 70 97
e 70 98
e 70 99
e 70 104
e 70 106
e 70 107
e 70 108
e 70 114
e 70 116
e 70 118
e 70 127
e 70 128
e 70 130
e 70 132
e 70 135
e 70 139
e 70 143
e 70 144
e 70 147
e 70 148
e 70 150
e 71 73
e 71 78
e 71 79
e 71 86
e 71 87
e 71 90
e 71 93
e 71 94
e 71 96
e 71 98
e 71 99
e 71 100
e 71 103
e 71 106
e 71 109
e 71 110
e 71 115
e 71 117
e 71 123
e 71 125
e 71 126
e 71 127
e 71 131
e 71 133
e 71 134
e 71 149
e 72 76
e 72 78
e 72 79
e 72 83
e 72 86
e 72 87
e 72 89
e 72 90
e 72 91
e 72 92
e 72 101
e 72 111
e 72 114
e 72 116
e 72 118
e 72 122
e 72 131
e 72 132
e 72 133
e 72 136
e 72 139
e 72 143
e 72 147
e 73 74
e 73 85
e 73 86
e 73 90
e 73 91
e 73 92
e 73 93
e 73 94
e 73 96
e 73 102
e 73 103
e 73 110
e 73 111
e 73 119
e 73 125
e 73 130
e 73 131
e 73 132
e 73 135
e 73 139
e 73 141
e 73 142
e 73 144
e 73 150
e 74 75
e 74 76
e 74 79
e 74 85
e 74 88
e 74 91
e 74 92
e 74 97
e 74 98
e 74 101
e 74 104
e 74 105
e 74 106
e 74 107
e 74 108
e 74 109
e 74 111
e 74 112
e 74 114
e 74 119
e 74 120
e 74 121
e 74 124
e 74 125
e 74 126
e 74 128
e 74 129
e 74 140
e 74 147
e 75 77
e 75 79
e 75 84
e 75 85
e 75 87
e 75 93
e 75 98
e 75 104
e 75 107
e 75 112
e 75 117
e 75 119
e 75 120
e 75 121
e 75 124
e 75 125
e 75 128
e 75 131
e 75 132
e 75 134
e 75 137
e 75 140
e 75 142
e 76 77
e 76 80
e 76 81
e 76 82
e 76 83
e 76 84
e 76 85
e 76 87
e 76 89
e 76 105
e 76 106
e 76 107
e 76 112
e 76 115
e 76 116
e 76 117
e 76 119
e 76 123
e 76 126
e 76 127
e 76 129
e 76 133
e 76 142
e 76 148
e 76 149
e 76 150
e 77 78
e 77 79
e 77 83
e 77 86
e 77 87
e 77 95
e 77 99
e 77 107
e 77 108
e 77 111
e 77 112
e 77 113
e 77 118
e 77 125
e 77 132
e 77 138
e 77 139
e 77 145
e 77 149
e 78 80
e 78 82
e 78 84
e 78 88
e 78 91
e 78 93
e 78 94
e 78 97
e 78 100
e 78 103
e 78 122
e 78 132
e 78 133
e 78 134
e 78 135
e 78 139
e 79 80
e 79 84
e 79 85
e 79 86
e 79 89
e 79 92
e 79 97
e 79 99
e 79 102
e 79 105
e 79 107
e 79 113
e 79 114
e 79 116
e 79 118
e 79 119
e 79 121
e 79 122
e 79 124
e 79 127
e 79 131
e 79 138
e 79 143
e 79 147
e 79 148
e 80 82
e 80 83
e 80 89
e 80 90
e 80 93
e 80 103
e 80 104
e 80 105
e 80 109
e 80 113
e 80 115
e 80 116
e 80 119
e 80 121
e 80 124
e 80 125
e 80 139
e 80 144
e 80 146
e 80 147
e 80 149
e 80 150
e 81 87
e 81 90
e 81 91
e 81 97
e 81 99
e 81 100
e 81 109
e 81 111
e 81 115
e 81 116
e 81 119
e 81 122
e 81 123
e 81 125
e 81 128
e 81 140
e 81 146
e 81 149
e 81 150
e 82 91
e 82 92
e 82 93
e 82 96
e 82 97
e 82 98
e 82 100
e 82 101
e 82 102
e 82 105
e 82 106
e 82 107
e 82 110
e 82 111
e 82 114
e 82 115
e 82 116
e 82 123
e 82 124
e 82 129
e 82 133
e 82 134
e 82 136
e 82 137
e 82 142
e 82 147
e 82 150
e 83 84
e 83 85
e 83 86
e 83 87
e 83 94
e 83 97
e 83 99
e 83 101
e 83 107
e 83 115
e 83 119
e 83 122
e 83 123
e 83 126
e 83 134
e 83 139
e 83 141
e 83 143
e 83 144
e 84 89
e 84 90
e 84 92
e 84 93
e 84 98
e 84 99
e 84 106
e 84 107
e 84 108
e 84 110
e 84 115
e 84 117
e 84 120
e 84 128
e 84 134
e 84 141
e 84 148
e 84 150
e 85 92
e 85 96
e 85 97
e 85 99
e 85 102
e 85 105
e 85 116
e 85 120
e 85 121
e 85 127
e 85 131
e 85 134
e 85 141
e 85 144
e 85 145
e 85 149
e 86 91
e 86 102
e 86 103
e 86 108
e 86 110
e 86 114
e 86 118
e 86 121
e 86 122
e 86 126
e 86 127
e 86 130
e 86 131
e 86 132
e 86 133
e 86 136
e 86 139
e 86 143
e 86 146
e 86 147
e 86 148
e 86 149
e 87 88
e 87 91
e 87 92
e 87 93
e 87 94
e 87 95
e 87 97
e 87 99
e 87 100
e 87 103
e 87 105
e 87 106
e 87 108
e 87 110
e 87 114
e 87 117
e 87 118
e 87 119
e 87 121
e 87 124
e 87 125
e 87 127
e 87 129
e 87 130
e 87 132
e 87 134
e 87 135
e 87 136
e 87 138
e 87 141
e 87 143
e 87 145
e 87 148
e 87 149
e 88 98
e 88 101
e 88 102
e 88 104
e 88 109
e 88 112
e 88 117
e 88 118
e 88 127
e 88 130
e 88 133
e 88 141
e 88 142
e 88 143
e 88 145
e 88 149
e 89 94
e 89 96
e 89 98
e 89 99
e 89 100
e 89 101
e 89 102
e 89 103
e 89 106
e 89 109
e 89 113
e 89 115
e 89 122
e 89 123
e 89 124
e 89 125
e 89 129
e 89 130
e 89 131
e 89 132
e 89 134
e 89 135
e 89 136
e 89 137
e 89 140
e 89 144
e 89 147
e 89 149
e 90 92
e 90 96
e 90 100
e 90 107
e 90 116
e 90 117
e 90 120
e 90 123
e 90 124
e 90 126
e 90 127
e 90 129
e 90 130
e 90 134
e 90 136
e 90 144
e 90 145
e 90 146
e 91 92
e 91 93
e 91 100
e 91 102
e 91 108
e 91 115
e 91 116
e 91 117
e 91 118
e 91 122
e 91 128
e 91 130
e 91 133
e 91 138
e 91 144
e 91 148
e 92 95
e 92 96
e 92 97
e 92 98
e 92 103
e 92 111
e 92 118
e 92 120
e 92 130
e 92 132
e 92 135
e 92 138
e 92 146
e 92 150
e 93 99
e 93 100
e 93 103
e 93 104
e 93 112
e 93 113
e 93 116
e 93 120
e 93 125
e 93 127
e 93 128
e 93 137
e 93 140
e 93 142
e 93 143
e 93 147
e 93 149
e 94 95
e 94 98
e 94 99
e 94 100
e 94 103
e 94 105
e 94 106
e 94 108
e 94 110
e 94 111
e 94 112
e 94 115
e 94 126
e 94 128
e 94 130
e 94 131
e 94 147
e 94 150
e 95 98
e 95 99
e 95 108
e 95 110
e 95 120
e 95 121
e 95 122
e 95 128
e 95 131
e 95 134
e 95 135
e 95 136
e 95 139
e 95 142
e 95 143
e 95 145
e 96 97
e 96 99
e 96 104
e 96 110
e 96 113
e 96 116
e 96 119
e 96 120
e 96 126
e 96 135
e 96 137
e 96 144
e 96 150
e 97 99
e 97 101
e 97 102
e 97 103
e 97 105
e 97 110
e 97 113
e 97 118
e 97 119
e 97 120
e 97 121
e 97 122
e 97 123
e 97 126
e 97 128
e 97 129
e 97 130
e 97 131
e 97 132
e 97 133
e 97 134
e 97 135
e 97 139
e 97 141
e 97 144
e 97 145
e 97 146
e 97 148
e 97 149
e 97 150
e 98 101
e 98 102
e 98 105
e 98 107
e 98 108
e 98 116
e 98 117
e 98 124
e 98 125
e 98 133
e 98 134
e 98 138
e 98 139
e 98 140
e 98 141
e 98 143
e 99 102
e 99 107
e 99 108
e 99 111
e 99 112
e 99 114
e 99 118
e 99 124
e 99 126
e 99 133
e 99 138
e 99 144
e 99 147
e 99 150
e 100 102
e 100 104
e 100 107
e 100 110
e 100 127
e 100 129
e 100 131
e 100 134
e 100 136
e 100 138
e 100 139
e 100 146
e 100 147
e 100 150
e 101 103
e 101 104
e 101 106
e 101 107
e 101 108
e 101 110
e 101 112
e 101 113
e 101 119
e 101 121
e 101 128
e 101 129
e 101 133
e 101 135
e 101 136
e 101 137
e 101 142
e 101 145
e 101 146
e 102 104
e 102 109
e 102 110
e 102 111
e 102 112
e 102 115
e 102 116
e 102 118
e 102 124
e 102 125
e 102 126
e 102 127
e 102 131
e 102 134
e 102 142
e 102 143
e 102 144
e 102 149
e 103 108
e 103 111
e 103 112
e 103 115
e 103 117
e 103 122
e 103 124
e 103 125
e 103 126
e 103 130
e 103 135
e 103 141
e 103 147
e 104 107
e 104 114
e 104 115
e 104 116
e 104 117
e 104 121
e 104 123
e 104 126
e 104 127
e 104 129
e 104 131
e 104 132
e 104 139
e 104 145
e 104 148
e 105 106
e 105 109
e 105 112
e 105 116
e 105 118
e 105 126
e 105 127
e 105 129
e 105 130
e 105 133
e 105 134
e 105 136
e 105 138
e 105 139
e 105 141
e 105 145
e 105 146
e 105 149
e 106 111
e 106 114
e 106 117
e 106 121
e 106 122
e 106 123
e 106 126
e 106 128
e 106 129
e 106 130
e 106 131
e 106 132
e 106 133
e 106 135
e 106 136
e 106 138
e 106 139
e 106 142
e 106 146
e 107 116
e 107 117
e 107 130
e 107 131
e 107 135
e 107 136
e 107 137
e 107 138
e 107 139
e 107 140
e 107 147
e 107 149
e 108 109
e 108 113
e 108 116
e 108 123
e 108 130
e 108 148
e 109 110
e 109 113
e 109 116
e 109 117
e 109 118
e 109 120
e 109 122
e 109 124
e 109 126
e 109 130
e 109 132
e 109 133
e 109 135
e 109 136
e 109 138
e 109 139
e 109 142
e 110 111
e 110 112
e 110 120
e 110 124
e 110 125
e 110 126
e 110 127
e 110 130
e 110 134
e 110 136
e 110 137
e 110 143
e 110 147
e 111 112
e 111 114
e 111 119
e 111 122
e 111 125
e 111 128
e 111 132
e 111 133
e 111 137
e 111 139
e 111 149
e 112 114
e 112 116
e 112 117
e 112 119
e 112 123
e 112 125
e 112 126
e 112 129
e 112 134
e 112 140
e 112 142
e 112 146
e 113 116
e 113 121
e 113 126
e 113 128
e 113 132
e 113 135
e 113 139
e 113 142
e 113 146
e 113 150
e 114 121
e 114 124
e 114 125
e 114 127
e 114 132
e 114 134
e 114 139
e 114 142
e 114 145
e 114 148
e 115 118
e 115 120
e 115 121
e 115 122
e 115 123
e 115 126
e 115 134
e 115 135
e 115 136
e 115 137
e 115 140
e 115 142
e 115 145
e 115 149
e 115 150
e 116 122
e 116 124
e 116 126
e 116 130
e 116 132
e 117 123
e 117 125
e 117 127
e 117 138
e 117 139
e 117 140
e 117 141
e 117 143
e 118 119
e 118 123
e 118 125
e 118 126
e 118 129
e 118 130
e 118 131
e 118 133
e 118 135
e 118 137
e 118 138
e 118 142
e 118 143
e 118 146
e 118 147
e 118 148
e 118 149
e 119 122
e 119 125
e 119 126
e 119 129
e 119 132
e 119 134
e 119 141
e 119 143
e 119 145
e 119 146
e 119 148
e 120 121
e 120 125
e 120 129
e 120 132
e 120 133
e 120 134
e 120 136
e 120 137
e 120 140
e 120 141
e 120 147
e 120 148
e 120 149
e 121 123
e 121 131
e 121 134
e 121 139
e 121 141
e 121 143
e 121 145
e 121 146
e 121 148
e 121 150
e 122 123
e 122 124
e 122 134
e 122 143
e 122 147
e 123 125
e 123 126
e 123 129
e 123 136
e 123 140
e 123 143
e 123 147
e 123 150
e 124 125
e 124 128
e 124 129
e 124 140
e 124 142
e 125 129
e 125 133
e 125 134
e 125 136
e 125 137
e 125 138
e 125 146
e 125 148
e 125 150
e 126 127
e 126 129
e 126 142
e 126 143
e 126 146
e 127 131
e 127 140
e 127 143
e 127 146
e 128 129
e 128 130
e 128 134
e 128 135
e 128 136
e 128 138
e 128 148
e 128 150
e 129 130
e 129 133
e 129 135
e 129 142
e 129 144
e 129 146
e 130 138
e 130 139
e 130 140
e 130 142
e 130 149
e 131 135
e 131 137
e 131 139
e 131 142
e 131 143
e 131 144
e 131 145
e 131 147
e 132 138
e 132 140
e 132 142
e 132 150
e 133 134
e 133 135
e 133 137
e 133 140
e 133 146
e 133 148
e 133 149
e 134 136
e 134 139
e 134 141
e 134 143
e 134 146
e 135 139
e 135 143
e 135 144
e 135 145
e 136 138
e 136 142
e 136 144
e 136 145
e 137 139
e 137 144
e 137 145
e 137 149
e 138 141
e 138 142
e 138 143
e 138 146
e 139 142
e 139 143
e 139 147
e 140 142
e 140 149
e 141 142
e 141 147
e 141 149
e 142 149
e 143 146
e 143 147
e 143 149
e 144 147
e 144 148
e 145 148
e 146 148
e 147 148
e 147 149
